
Gurobi 9.1.2 (win64) logging started Tue Dec  7 13:30:30 2021

Gurobi Optimizer version 9.1.2 build v9.1.2rc0 (win64)
Thread count: 8 physical cores, 8 logical processors, using up to 8 threads
Optimize a model with 1 rows, 19 columns and 18 nonzeros
Model fingerprint: 0x5a78d177
Variable types: 1 continuous, 18 integer (18 binary)
Coefficient statistics:
  Matrix range     [2e+00, 1e+01]
  Objective range  [1e+00, 1e+00]
  Bounds range     [2e+01, 2e+01]
  RHS range        [1e+01, 1e+01]
Found heuristic solution: objective -15.6358607

Explored 0 nodes (0 simplex iterations) in 14.00 seconds
Thread count was 1 (of 8 available processors)

Solution count 1: -15.6359 
No other solutions better than -15.6359

Optimal solution found (tolerance 1.00e-04)
Best objective -1.563586068428e+01, best bound -1.563586068428e+01, gap 0.0000%

User-callback calls 25, time in user-callback 17.58 sec
